db/data/2502686298353110871710176482970415133.z3.out
sat
-------------------
841.693800210
